
Gurobi 12.0.2 (win64) logging started Sat Nov 22 21:48:27 2025

Set parameter LogFile to value "resultados DATA_1_n30m10b2d1\instancia_9_log.txt"
Set parameter TimeLimit to value 3600
Gurobi Optimizer version 12.0.2 build v12.0.2rc0 (win64 - Windows 10.0 (19045.2))

CPU model: Intel(R) Core(TM) i5-6300U CPU @ 2.40GHz, instruction set [SSE2|AVX|AVX2]
Thread count: 2 physical cores, 4 logical processors, using up to 4 threads

Non-default parameters:
TimeLimit  3600

Optimize a model with 13258 rows, 61353 columns and 24661412 nonzeros
Model fingerprint: 0xe35c7948
Variable types: 0 continuous, 61353 integer (61353 binary)
Coefficient statistics:
  Matrix range     [1e+00, 1e+00]
  Objective range  [3e-03, 6e-02]
  Bounds range     [1e+00, 1e+00]
  RHS range        [1e+00, 3e+02]
Found heuristic solution: objective 0.9069630
Presolve removed 0 rows and 0 columns (presolve time = 5s)...
Presolve removed 0 rows and 3340 columns (presolve time = 10s)...
Presolve removed 0 rows and 13764 columns (presolve time = 15s)...
Presolve removed 0 rows and 20653 columns (presolve time = 20s)...
Presolve removed 0 rows and 20653 columns (presolve time = 25s)...
Presolve removed 0 rows and 20653 columns (presolve time = 30s)...
Presolve removed 149 rows and 20653 columns (presolve time = 35s)...
Presolve removed 149 rows and 20700 columns (presolve time = 40s)...
Presolve removed 149 rows and 20711 columns (presolve time = 45s)...
Presolve removed 149 rows and 20717 columns (presolve time = 50s)...
Presolve removed 150 rows and 20717 columns (presolve time = 56s)...
Presolve removed 150 rows and 20717 columns (presolve time = 60s)...
Presolve removed 150 rows and 20717 columns (presolve time = 65s)...
Presolve removed 150 rows and 20717 columns (presolve time = 70s)...
Presolve removed 150 rows and 20717 columns (presolve time = 76s)...
Presolve removed 150 rows and 20717 columns (presolve time = 80s)...
Presolve removed 150 rows and 20717 columns (presolve time = 85s)...
Presolve removed 150 rows and 20717 columns (presolve time = 90s)...
Presolve removed 150 rows and 20717 columns (presolve time = 95s)...
Presolve removed 150 rows and 20717 columns (presolve time = 100s)...
Presolve removed 150 rows and 20717 columns (presolve time = 105s)...
Presolve removed 150 rows and 20717 columns (presolve time = 110s)...
Presolve removed 150 rows and 20717 columns (presolve time = 115s)...
Presolve removed 150 rows and 20717 columns (presolve time = 120s)...
Presolve removed 150 rows and 20717 columns (presolve time = 125s)...
Presolve removed 150 rows and 20717 columns (presolve time = 130s)...
Presolve removed 150 rows and 20717 columns (presolve time = 135s)...
Presolve removed 150 rows and 20717 columns (presolve time = 140s)...
Presolve removed 150 rows and 20717 columns (presolve time = 145s)...
Presolve removed 150 rows and 20717 columns (presolve time = 150s)...
Presolve removed 150 rows and 20717 columns (presolve time = 155s)...
Presolve removed 150 rows and 20717 columns (presolve time = 160s)...
Presolve removed 150 rows and 20717 columns (presolve time = 165s)...
Presolve removed 150 rows and 20717 columns (presolve time = 170s)...
Presolve removed 150 rows and 20717 columns (presolve time = 175s)...
Presolve removed 150 rows and 20717 columns (presolve time = 180s)...
Presolve removed 150 rows and 20717 columns (presolve time = 185s)...
Presolve removed 150 rows and 20717 columns (presolve time = 190s)...
Presolve removed 150 rows and 20717 columns (presolve time = 195s)...
Presolve removed 150 rows and 20717 columns (presolve time = 200s)...
Presolve removed 150 rows and 20717 columns (presolve time = 205s)...
Presolve removed 150 rows and 20717 columns (presolve time = 210s)...
Presolve removed 150 rows and 20717 columns (presolve time = 215s)...
Presolve removed 150 rows and 20717 columns (presolve time = 220s)...
Presolve removed 150 rows and 20717 columns (presolve time = 225s)...
Presolve removed 150 rows and 20717 columns (presolve time = 230s)...
Presolve removed 150 rows and 20717 columns (presolve time = 235s)...
Presolve removed 150 rows and 20717 columns (presolve time = 240s)...
Presolve removed 150 rows and 20717 columns (presolve time = 245s)...
Presolve removed 150 rows and 20717 columns (presolve time = 250s)...
Presolve removed 150 rows and 20717 columns
Presolve time: 254.73s
Presolved: 13108 rows, 40636 columns, 15838771 nonzeros
Found heuristic solution: objective 0.7473333
Variable types: 0 continuous, 40636 integer (40636 binary)
Found heuristic solution: objective 0.9092963
Deterministic concurrent LP optimizer: dual simplex and barrier
Showing barrier log only...

Root barrier log...

Ordering time: 4.29s

Barrier statistics:
 AA' NZ     : 3.372e+07
 Factor NZ  : 6.691e+07 (roughly 600 MB of memory)
 Factor Ops : 4.131e+11 (roughly 30 seconds per iteration)
 Threads    : 1

                  Objective                Residual
Iter       Primal          Dual         Primal    Dual     Compl     Time
   0   1.30315640e+04  1.18228279e+00  1.51e+05 1.05e-03  5.88e-01   341s
   1   1.06628300e+03  2.67380572e+01  1.26e+04 3.29e-04  3.83e-02   372s
   2   5.71412002e+01  2.38773321e+01  7.29e+02 2.50e-16  2.46e-03   402s
   3   9.56018579e+00  1.09565371e+01  1.06e+02 4.16e-16  3.89e-04   430s
   4   5.31373378e+00  6.30571024e+00  5.37e+01 9.99e-16  2.76e-04   459s
   5   3.00419997e+00  5.04043589e+00  2.56e+01 7.49e-16  1.48e-04   488s
   6   2.34358384e+00  4.26626064e+00  1.56e+01 7.22e-16  1.07e-04   516s
   7   1.82257116e+00  4.17106055e+00  7.40e+00 6.66e-16  7.70e-05   547s
   8   1.00774407e+00  2.26946418e+00  6.28e-01 7.77e-16  1.77e-05   589s
   9   9.65099256e-01  1.54884203e+00  2.33e-01 3.75e-16  7.19e-06   622s
  10   9.65330022e-01  1.13688836e+00  7.07e-02 2.12e-16  2.01e-06   672s
  11   9.74421871e-01  1.08033997e+00  4.20e-02 1.87e-16  1.23e-06   727s
  12   9.87691451e-01  1.02223260e+00  1.16e-02 1.44e-16  3.93e-07   770s
  13   9.91624419e-01  1.01383277e+00  8.12e-03 1.35e-16  2.54e-07   811s
  14   9.97341942e-01  1.00366676e+00  1.24e-03 1.77e-16  7.00e-08   852s
  15   9.99215973e-01  1.00115896e+00  1.54e-04 1.12e-16  2.11e-08   889s
  16   9.99880931e-01  1.00025098e+00  4.63e-06 1.22e-16  3.95e-09   938s
  17   9.99987463e-01  1.00004574e+00  0.00e+00 1.20e-16  6.18e-10   975s
  18   9.99997766e-01  1.00000739e+00  0.00e+00 1.62e-16  1.02e-10  1011s
  19   9.99999939e-01  1.00000029e+00  0.00e+00 1.40e-16  3.68e-12  1056s
  20   1.00000000e+00  1.00000000e+00  4.93e-12 1.53e-16  3.69e-15  1098s

Barrier solved model in 20 iterations and 1098.32 seconds (745.66 work units)
Optimal objective 1.00000000e+00


Root crossover log...

    2145 variables added to crossover basis                     1100s
    3897 variables added to crossover basis                     1105s
    4472 variables added to crossover basis                     1110s
    5044 variables added to crossover basis                     1115s
    5404 variables added to crossover basis                     1121s
    5614 variables added to crossover basis                     1126s
    5734 variables added to crossover basis                     1130s
    5946 variables added to crossover basis                     1135s
    6066 variables added to crossover basis                     1141s
    6157 variables added to crossover basis                     1145s
    6278 variables added to crossover basis                     1150s
    6428 variables added to crossover basis                     1156s
    6519 variables added to crossover basis                     1161s
    6579 variables added to crossover basis                     1166s
    6639 variables added to crossover basis                     1171s
    6730 variables added to crossover basis                     1177s
    6790 variables added to crossover basis                     1180s
    6881 variables added to crossover basis                     1188s
    6911 variables added to crossover basis                     1191s
    6971 variables added to crossover basis                     1196s
    7001 variables added to crossover basis                     1201s
    7061 variables added to crossover basis                     1209s
    7092 variables added to crossover basis                     1210s
    7152 variables added to crossover basis                     1216s
    7212 variables added to crossover basis                     1222s
    7242 variables added to crossover basis                     1225s
    7272 variables added to crossover basis                     1230s
    7332 variables added to crossover basis                     1238s
    7362 variables added to crossover basis                     1242s
    7392 variables added to crossover basis                     1248s
    7422 variables added to crossover basis                     1253s
    7452 variables added to crossover basis                     1259s

Restart crossover...

      40 variables added to crossover basis                     1310s
    3621 variables added to crossover basis                     1315s
    4342 variables added to crossover basis                     1320s
    4855 variables added to crossover basis                     1326s
    5097 variables added to crossover basis                     1330s
    5308 variables added to crossover basis                     1335s
    5459 variables added to crossover basis                     1341s
    5550 variables added to crossover basis                     1345s
    5640 variables added to crossover basis                     1351s
    5701 variables added to crossover basis                     1355s
    5791 variables added to crossover basis                     1362s
    5851 variables added to crossover basis                     1367s
    5911 variables added to crossover basis                     1373s
    5941 variables added to crossover basis                     1377s
    5971 variables added to crossover basis                     1381s
    6031 variables added to crossover basis                     1390s
    6061 variables added to crossover basis                     1395s
    6073 variables added to crossover basis                     1402s
    6091 variables added to crossover basis                     1406s
    6120 variables added to crossover basis                     1412s
    6138 variables added to crossover basis                     1416s
    6155 variables added to crossover basis                     1420s
    6177 variables added to crossover basis                     1425s
    6205 variables added to crossover basis                     1431s
    6225 variables added to crossover basis                     1435s
    6250 variables added to crossover basis                     1441s
    6269 variables added to crossover basis                     1445s
    6297 variables added to crossover basis                     1451s
    6316 variables added to crossover basis                     1455s
    6341 variables added to crossover basis                     1461s
    6378 variables added to crossover basis                     1468s
    6394 variables added to crossover basis                     1472s
    6411 variables added to crossover basis                     1475s
    6434 variables added to crossover basis                     1481s
    6462 variables added to crossover basis                     1486s
    6489 variables added to crossover basis                     1492s
    6509 variables added to crossover basis                     1496s
    6537 variables added to crossover basis                     1501s
    6560 variables added to crossover basis                     1506s
    6588 variables added to crossover basis                     1511s
    6613 variables added to crossover basis                     1516s
    6636 variables added to crossover basis                     1520s
    6662 variables added to crossover basis                     1526s
    6681 variables added to crossover basis                     1530s
    6703 variables added to crossover basis                     1536s
    6741 variables added to crossover basis                     1543s
    6759 variables added to crossover basis                     1546s
    6785 variables added to crossover basis                     1551s
    6809 variables added to crossover basis                     1557s
    6828 variables added to crossover basis                     1561s
    6853 variables added to crossover basis                     1566s
    6882 variables added to crossover basis                     1571s
    6911 variables added to crossover basis                     1575s
    6948 variables added to crossover basis                     1581s
    6977 variables added to crossover basis                     1586s
    7011 variables added to crossover basis                     1592s
    7036 variables added to crossover basis                     1596s
    7069 variables added to crossover basis                     1601s
    7102 variables added to crossover basis                     1606s
    7125 variables added to crossover basis                     1610s
    7160 variables added to crossover basis                     1617s
    7177 variables added to crossover basis                     1620s
    7213 variables added to crossover basis                     1626s
    7247 variables added to crossover basis                     1631s
    7281 variables added to crossover basis                     1636s
    7317 variables added to crossover basis                     1641s
    7353 variables added to crossover basis                     1646s
    7380 variables added to crossover basis                     1650s
    7422 variables added to crossover basis                     1656s
    7466 variables added to crossover basis                     1662s
    7484 variables added to crossover basis                     1665s
    7524 variables added to crossover basis                     1671s
    7558 variables added to crossover basis                     1675s
    7602 variables added to crossover basis                     1681s
    7635 variables added to crossover basis                     1685s
    7668 variables added to crossover basis                     1690s
    7704 variables added to crossover basis                     1695s
    7749 variables added to crossover basis                     1701s
    7781 variables added to crossover basis                     1705s
    7821 variables added to crossover basis                     1710s
    7858 variables added to crossover basis                     1715s
    7894 variables added to crossover basis                     1720s
    7936 variables added to crossover basis                     1725s
    7992 variables added to crossover basis                     1731s
    8039 variables added to crossover basis                     1736s
    8085 variables added to crossover basis                     1741s
    8134 variables added to crossover basis                     1746s
    8179 variables added to crossover basis                     1750s
    8247 variables added to crossover basis                     1756s
    8290 variables added to crossover basis                     1760s
    8348 variables added to crossover basis                     1765s
    8406 variables added to crossover basis                     1770s
    8467 variables added to crossover basis                     1775s
    8536 variables added to crossover basis                     1781s
    8592 variables added to crossover basis                     1786s
    8658 variables added to crossover basis                     1790s
    8729 variables added to crossover basis                     1795s
    8812 variables added to crossover basis                     1800s
    8904 variables added to crossover basis                     1806s
    8998 variables added to crossover basis                     1811s
    9083 variables added to crossover basis                     1815s
    9203 variables added to crossover basis                     1820s
    9332 variables added to crossover basis                     1825s
    9575 variables added to crossover basis                     1830s

    3303 DPushes remaining with DInf 0.0000000e+00              1837s
    3302 DPushes remaining with DInf 0.0000000e+00              1843s
    3033 DPushes remaining with DInf 0.0000000e+00              1861s
    2762 DPushes remaining with DInf 0.0000000e+00              1879s
    2563 DPushes remaining with DInf 0.0000000e+00              1893s
    2373 DPushes remaining with DInf 0.0000000e+00              1907s
    2166 DPushes remaining with DInf 0.0000000e+00              1920s
    2000 DPushes remaining with DInf 0.0000000e+00              1935s
    1793 DPushes remaining with DInf 0.0000000e+00              1951s
    1566 DPushes remaining with DInf 0.0000000e+00              1967s
    1339 DPushes remaining with DInf 0.0000000e+00              1982s
    1227 DPushes remaining with DInf 0.0000000e+00              2005s
    1126 DPushes remaining with DInf 0.0000000e+00              2021s
    1026 DPushes remaining with DInf 0.0000000e+00              2039s
     926 DPushes remaining with DInf 0.0000000e+00              2057s
     826 DPushes remaining with DInf 1.1149362e-05              2076s
     725 DPushes remaining with DInf 1.1147761e-05              2096s
     596 DPushes remaining with DInf 1.1148910e-05              2114s
     468 DPushes remaining with DInf 1.1148909e-05              2132s
     333 DPushes remaining with DInf 1.1148484e-05              2150s
     215 DPushes remaining with DInf 1.2113598e-04              2170s
      96 DPushes remaining with DInf 1.2963038e-06              2186s
       0 DPushes remaining with DInf 0.0000000e+00              2198s

   18632 PPushes remaining with PInf 7.7235617e-05              2198s
   18631 PPushes remaining with PInf 6.4318373e-05              2204s
   18503 PPushes remaining with PInf 0.0000000e+00              2217s
   18385 PPushes remaining with PInf 0.0000000e+00              2231s
   18264 PPushes remaining with PInf 0.0000000e+00              2249s
   18136 PPushes remaining with PInf 0.0000000e+00              2263s
   18010 PPushes remaining with PInf 0.0000000e+00              2276s
   17890 PPushes remaining with PInf 0.0000000e+00              2290s
   17775 PPushes remaining with PInf 1.7230725e-03              2307s
   17659 PPushes remaining with PInf 2.3576773e-04              2326s
   17543 PPushes remaining with PInf 2.0599545e-04              2342s
   17428 PPushes remaining with PInf 2.0599545e-04              2358s
   17313 PPushes remaining with PInf 2.0599545e-04              2379s
   17198 PPushes remaining with PInf 2.0599545e-04              2397s
   17083 PPushes remaining with PInf 2.0599545e-04              2414s
   16966 PPushes remaining with PInf 1.8390889e-04              2431s
   16842 PPushes remaining with PInf 1.4328592e-04              2446s
   16712 PPushes remaining with PInf 1.3546231e-04              2462s
   16590 PPushes remaining with PInf 1.3546231e-04              2479s
   16468 PPushes remaining with PInf 1.3546231e-04              2496s
   16347 PPushes remaining with PInf 1.3546231e-04              2513s
   16228 PPushes remaining with PInf 1.3546231e-04              2530s
   16104 PPushes remaining with PInf 8.9551252e-05              2547s
   15981 PPushes remaining with PInf 8.9551252e-05              2564s
   15851 PPushes remaining with PInf 8.9551252e-05              2583s
   15722 PPushes remaining with PInf 8.9551252e-05              2600s
   15607 PPushes remaining with PInf 8.9551252e-05              2618s
   15488 PPushes remaining with PInf 8.9551252e-05              2637s
   15372 PPushes remaining with PInf 8.9551252e-05              2655s
   15256 PPushes remaining with PInf 8.9551252e-05              2673s
   15132 PPushes remaining with PInf 8.9551252e-05              2691s
   15011 PPushes remaining with PInf 8.9551252e-05              2709s
   14893 PPushes remaining with PInf 8.9551252e-05              2727s
   14773 PPushes remaining with PInf 8.9551252e-05              2747s
   14654 PPushes remaining with PInf 8.9551252e-05              2766s
   14531 PPushes remaining with PInf 8.9551252e-05              2785s
   14408 PPushes remaining with PInf 8.9551252e-05              2804s
   14289 PPushes remaining with PInf 8.9551252e-05              2824s
   14165 PPushes remaining with PInf 8.9551252e-05              2843s
   14042 PPushes remaining with PInf 8.9551252e-05              2861s
   13916 PPushes remaining with PInf 1.0619212e-04              2881s
   13786 PPushes remaining with PInf 8.9551252e-05              2902s
   13658 PPushes remaining with PInf 8.9551252e-05              2918s
   13521 PPushes remaining with PInf 8.9551252e-05              2935s
   13391 PPushes remaining with PInf 8.9551252e-05              2951s
   13275 PPushes remaining with PInf 8.9551252e-05              2968s
   13160 PPushes remaining with PInf 8.9551252e-05              2984s
   13040 PPushes remaining with PInf 8.9551252e-05              3000s
   12922 PPushes remaining with PInf 8.9551252e-05              3016s
   12806 PPushes remaining with PInf 8.9551252e-05              3031s
   12690 PPushes remaining with PInf 8.9551252e-05              3047s
   12574 PPushes remaining with PInf 8.9551252e-05              3063s
   12454 PPushes remaining with PInf 8.9551252e-05              3079s
   12335 PPushes remaining with PInf 8.9551252e-05              3095s
   12218 PPushes remaining with PInf 8.9551252e-05              3112s
   12101 PPushes remaining with PInf 8.9551252e-05              3128s
   11986 PPushes remaining with PInf 8.9551252e-05              3145s
   11869 PPushes remaining with PInf 0.0000000e+00              3161s
   11752 PPushes remaining with PInf 0.0000000e+00              3179s
   11635 PPushes remaining with PInf 0.0000000e+00              3198s
   11517 PPushes remaining with PInf 0.0000000e+00              3216s
   11399 PPushes remaining with PInf 0.0000000e+00              3237s
   11283 PPushes remaining with PInf 0.0000000e+00              3257s
   11167 PPushes remaining with PInf 0.0000000e+00              3279s
   11052 PPushes remaining with PInf 0.0000000e+00              3297s
   10936 PPushes remaining with PInf 0.0000000e+00              3315s
   10819 PPushes remaining with PInf 0.0000000e+00              3337s
   10700 PPushes remaining with PInf 0.0000000e+00              3363s
   10584 PPushes remaining with PInf 0.0000000e+00              3392s
   10467 PPushes remaining with PInf 0.0000000e+00              3421s
   10352 PPushes remaining with PInf 0.0000000e+00              3442s
   10233 PPushes remaining with PInf 0.0000000e+00              3467s
   10118 PPushes remaining with PInf 0.0000000e+00              3496s
   10000 PPushes remaining with PInf 0.0000000e+00              3524s
    9885 PPushes remaining with PInf 0.0000000e+00              3551s
    9768 PPushes remaining with PInf 0.0000000e+00              3578s
    9652 PPushes remaining with PInf 0.0000000e+00              3606s


Root relaxation: time limit, 0 iterations, 3346.71 seconds (2320.04 work units)

    Nodes    |    Current Node    |     Objective Bounds      |     Work
 Expl Unexpl |  Obj  Depth IntInf | Incumbent    BestBd   Gap | It/Node Time

     0     0          -    0         0.90930  718.30689      -     - 3606s

Explored 1 nodes (0 simplex iterations) in 3606.52 seconds (2421.35 work units)
Thread count was 4 (of 4 available processors)

Solution count 3: 0.909296 0.906963 0.747333 

Time limit reached
Best objective 9.092962962963e-01, best bound 7.183068888885e+02, gap 78895.9106%
